# A script to initialise and equilibrate a quiescent Morse gel. Simulation parameters are
# set in the input file specifying the initial configuration. The input file is generated by a Python script.

# Temperature is set to 1 such that beta epsilon is then the morse well depth
variable run_temp equal 1

units		lj 
atom_style	sphere 
atom_modify	map array 

pair_style	hybrid/overlay morse 1.25 yukawa/colloid 0.9 3.0
# Read particles and interactions from input file
read_data ${file_name}
# Set up the particle interactions
pair_coeff  * * yukawa/colloid 6.0
include coeffs.in
pair_modify	shift yes
comm_modify vel yes
pair_write 1 1 100 r 0.25 3.0 morse_yukawa_11.txt totalpotential11
pair_write 1 2 100 r 0.25 3.0 morse_yukawa_12.txt totalpotential12
pair_write 2 1 100 r 0.25 3.0 morse_yukawa_21.txt totalpotential21
pair_write 2 2 100 r 0.25 3.0 morse_yukawa_22.txt totalpotential22