group type1 type 1
variable d1 equal 1.0
pair_coeff 1 1 morse 80 1.5 1 1.25
pair_coeff 1 2 morse 205 1.5 0.75 0.9375
group type2 type 2
variable d2 equal 0.5
pair_coeff 2 2 morse 330 1.5 0.5 0.625
