# A script to initialise and equilibrate a quiescent Morse gel. Simulation parameters are
# set in the input file specifying the initial configuration. The input file is generated by a Python script.

# Temperature is set to 1 such that beta epsilon is then the morse well depth
variable run_temp equal 1

units		lj 
atom_style	sphere 
atom_modify	map array 

pair_style	hybrid/overlay morse 1.25 yukawa 0.9 3.0
# Read particles and interactions from input file
read_data ${file_name}
# Set up the particle interactions
pair_coeff  * * yukawa 6.0
include coeffs.in
pair_modify	shift yes
comm_modify vel yes
pair_write 1 1 100 r 0.5 3.0 morse_yukawa.txt totalpotential