pair_coeff 1 1 morse 80 1.5 1 1.25
pair_coeff 1 1 dpd/tstat 3
